array [1..25] of var 1..5: a :: output_array([1..5, 1..5]);
var 1..5: aa :: output_var;
array [1..25] of var 1..5: b :: output_array([1..5, 1..5]);
var 1..5: bb :: output_var;
array [1..25] of var 1..5: c :: output_array([1..5, 1..5]);
var 1..5: cc :: output_var;
array [1..25] of var 1..5: d :: output_array([1..5, 1..5]);
var 1..5: dd :: output_var;
array [1..25] of var 1..5: e :: output_array([1..5, 1..5]);
var 1..5: ee :: output_var;
array [1..25] of var 1..5: f :: output_array([1..5, 1..5]);
var 1..5: ff :: output_var;
array [1..25] of var 1..5: g :: output_array([1..5, 1..5]);
var 1..5: gg :: output_var;
array [1..25] of var 1..5: h :: output_array([1..5, 1..5]);
var 1..5: hh :: output_var;
array [1..25] of var 1..5: i :: output_array([1..5, 1..5]);
var 1..5: ii :: output_var;
array [1..25] of var 1..5: j :: output_array([1..5, 1..5]);
var 1..5: jj :: output_var;
constraint int_ne(aa, a[1]);
constraint int_ne(aa, a[2]);
constraint int_ne(aa, a[3]);
constraint int_ne(aa, a[4]);
constraint int_ne(aa, a[5]);
constraint int_ne(aa, a[6]);
constraint int_ne(aa, a[7]);
constraint int_ne(aa, a[8]);
constraint int_ne(aa, a[9]);
constraint int_ne(aa, a[10]);
constraint int_ne(aa, a[11]);
constraint int_ne(aa, a[12]);
constraint int_ne(aa, a[13]);
constraint int_ne(aa, a[14]);
constraint int_ne(aa, a[15]);
constraint int_ne(aa, a[16]);
constraint int_ne(aa, a[17]);
constraint int_ne(aa, a[18]);
constraint int_ne(aa, a[19]);
constraint int_ne(aa, a[20]);
constraint int_ne(aa, a[21]);
constraint int_ne(aa, a[22]);
constraint int_ne(aa, a[23]);
constraint int_ne(aa, a[24]);
constraint int_ne(aa, a[25]);
constraint int_ne(bb, b[1]);
constraint int_ne(bb, b[2]);
constraint int_ne(bb, b[3]);
constraint int_ne(bb, b[4]);
constraint int_ne(bb, b[5]);
constraint int_ne(bb, b[6]);
constraint int_ne(bb, b[7]);
constraint int_ne(bb, b[8]);
constraint int_ne(bb, b[9]);
constraint int_ne(bb, b[10]);
constraint int_ne(bb, b[11]);
constraint int_ne(bb, b[12]);
constraint int_ne(bb, b[13]);
constraint int_ne(bb, b[14]);
constraint int_ne(bb, b[15]);
constraint int_ne(bb, b[16]);
constraint int_ne(bb, b[17]);
constraint int_ne(bb, b[18]);
constraint int_ne(bb, b[19]);
constraint int_ne(bb, b[20]);
constraint int_ne(bb, b[21]);
constraint int_ne(bb, b[22]);
constraint int_ne(bb, b[23]);
constraint int_ne(bb, b[24]);
constraint int_ne(bb, b[25]);
constraint int_ne(cc, c[1]);
constraint int_ne(cc, c[2]);
constraint int_ne(cc, c[3]);
constraint int_ne(cc, c[4]);
constraint int_ne(cc, c[5]);
constraint int_ne(cc, c[6]);
constraint int_ne(cc, c[7]);
constraint int_ne(cc, c[8]);
constraint int_ne(cc, c[9]);
constraint int_ne(cc, c[10]);
constraint int_ne(cc, c[11]);
constraint int_ne(cc, c[12]);
constraint int_ne(cc, c[13]);
constraint int_ne(cc, c[14]);
constraint int_ne(cc, c[15]);
constraint int_ne(cc, c[16]);
constraint int_ne(cc, c[17]);
constraint int_ne(cc, c[18]);
constraint int_ne(cc, c[19]);
constraint int_ne(cc, c[20]);
constraint int_ne(cc, c[21]);
constraint int_ne(cc, c[22]);
constraint int_ne(cc, c[23]);
constraint int_ne(cc, c[24]);
constraint int_ne(cc, c[25]);
constraint int_ne(dd, d[1]);
constraint int_ne(dd, d[2]);
constraint int_ne(dd, d[3]);
constraint int_ne(dd, d[4]);
constraint int_ne(dd, d[5]);
constraint int_ne(dd, d[6]);
constraint int_ne(dd, d[7]);
constraint int_ne(dd, d[8]);
constraint int_ne(dd, d[9]);
constraint int_ne(dd, d[10]);
constraint int_ne(dd, d[11]);
constraint int_ne(dd, d[12]);
constraint int_ne(dd, d[13]);
constraint int_ne(dd, d[14]);
constraint int_ne(dd, d[15]);
constraint int_ne(dd, d[16]);
constraint int_ne(dd, d[17]);
constraint int_ne(dd, d[18]);
constraint int_ne(dd, d[19]);
constraint int_ne(dd, d[20]);
constraint int_ne(dd, d[21]);
constraint int_ne(dd, d[22]);
constraint int_ne(dd, d[23]);
constraint int_ne(dd, d[24]);
constraint int_ne(dd, d[25]);
constraint int_ne(ee, e[1]);
constraint int_ne(ee, e[2]);
constraint int_ne(ee, e[3]);
constraint int_ne(ee, e[4]);
constraint int_ne(ee, e[5]);
constraint int_ne(ee, e[6]);
constraint int_ne(ee, e[7]);
constraint int_ne(ee, e[8]);
constraint int_ne(ee, e[9]);
constraint int_ne(ee, e[10]);
constraint int_ne(ee, e[11]);
constraint int_ne(ee, e[12]);
constraint int_ne(ee, e[13]);
constraint int_ne(ee, e[14]);
constraint int_ne(ee, e[15]);
constraint int_ne(ee, e[16]);
constraint int_ne(ee, e[17]);
constraint int_ne(ee, e[18]);
constraint int_ne(ee, e[19]);
constraint int_ne(ee, e[20]);
constraint int_ne(ee, e[21]);
constraint int_ne(ee, e[22]);
constraint int_ne(ee, e[23]);
constraint int_ne(ee, e[24]);
constraint int_ne(ee, e[25]);
constraint int_ne(ff, f[1]);
constraint int_ne(ff, f[2]);
constraint int_ne(ff, f[3]);
constraint int_ne(ff, f[4]);
constraint int_ne(ff, f[5]);
constraint int_ne(ff, f[6]);
constraint int_ne(ff, f[7]);
constraint int_ne(ff, f[8]);
constraint int_ne(ff, f[9]);
constraint int_ne(ff, f[10]);
constraint int_ne(ff, f[11]);
constraint int_ne(ff, f[12]);
constraint int_ne(ff, f[13]);
constraint int_ne(ff, f[14]);
constraint int_ne(ff, f[15]);
constraint int_ne(ff, f[16]);
constraint int_ne(ff, f[17]);
constraint int_ne(ff, f[18]);
constraint int_ne(ff, f[19]);
constraint int_ne(ff, f[20]);
constraint int_ne(ff, f[21]);
constraint int_ne(ff, f[22]);
constraint int_ne(ff, f[23]);
constraint int_ne(ff, f[24]);
constraint int_ne(ff, f[25]);
constraint int_ne(gg, g[1]);
constraint int_ne(gg, g[2]);
constraint int_ne(gg, g[3]);
constraint int_ne(gg, g[4]);
constraint int_ne(gg, g[5]);
constraint int_ne(gg, g[6]);
constraint int_ne(gg, g[7]);
constraint int_ne(gg, g[8]);
constraint int_ne(gg, g[9]);
constraint int_ne(gg, g[10]);
constraint int_ne(gg, g[11]);
constraint int_ne(gg, g[12]);
constraint int_ne(gg, g[13]);
constraint int_ne(gg, g[14]);
constraint int_ne(gg, g[15]);
constraint int_ne(gg, g[16]);
constraint int_ne(gg, g[17]);
constraint int_ne(gg, g[18]);
constraint int_ne(gg, g[19]);
constraint int_ne(gg, g[20]);
constraint int_ne(gg, g[21]);
constraint int_ne(gg, g[22]);
constraint int_ne(gg, g[23]);
constraint int_ne(gg, g[24]);
constraint int_ne(gg, g[25]);
constraint int_ne(hh, h[1]);
constraint int_ne(hh, h[2]);
constraint int_ne(hh, h[3]);
constraint int_ne(hh, h[4]);
constraint int_ne(hh, h[5]);
constraint int_ne(hh, h[6]);
constraint int_ne(hh, h[7]);
constraint int_ne(hh, h[8]);
constraint int_ne(hh, h[9]);
constraint int_ne(hh, h[10]);
constraint int_ne(hh, h[11]);
constraint int_ne(hh, h[12]);
constraint int_ne(hh, h[13]);
constraint int_ne(hh, h[14]);
constraint int_ne(hh, h[15]);
constraint int_ne(hh, h[16]);
constraint int_ne(hh, h[17]);
constraint int_ne(hh, h[18]);
constraint int_ne(hh, h[19]);
constraint int_ne(hh, h[20]);
constraint int_ne(hh, h[21]);
constraint int_ne(hh, h[22]);
constraint int_ne(hh, h[23]);
constraint int_ne(hh, h[24]);
constraint int_ne(hh, h[25]);
constraint int_ne(ii, i[1]);
constraint int_ne(ii, i[2]);
constraint int_ne(ii, i[3]);
constraint int_ne(ii, i[4]);
constraint int_ne(ii, i[5]);
constraint int_ne(ii, i[6]);
constraint int_ne(ii, i[7]);
constraint int_ne(ii, i[8]);
constraint int_ne(ii, i[9]);
constraint int_ne(ii, i[10]);
constraint int_ne(ii, i[11]);
constraint int_ne(ii, i[12]);
constraint int_ne(ii, i[13]);
constraint int_ne(ii, i[14]);
constraint int_ne(ii, i[15]);
constraint int_ne(ii, i[16]);
constraint int_ne(ii, i[17]);
constraint int_ne(ii, i[18]);
constraint int_ne(ii, i[19]);
constraint int_ne(ii, i[20]);
constraint int_ne(ii, i[21]);
constraint int_ne(ii, i[22]);
constraint int_ne(ii, i[23]);
constraint int_ne(ii, i[24]);
constraint int_ne(ii, i[25]);
constraint int_ne(jj, j[1]);
constraint int_ne(jj, j[2]);
constraint int_ne(jj, j[3]);
constraint int_ne(jj, j[4]);
constraint int_ne(jj, j[5]);
constraint int_ne(jj, j[6]);
constraint int_ne(jj, j[7]);
constraint int_ne(jj, j[8]);
constraint int_ne(jj, j[9]);
constraint int_ne(jj, j[10]);
constraint int_ne(jj, j[11]);
constraint int_ne(jj, j[12]);
constraint int_ne(jj, j[13]);
constraint int_ne(jj, j[14]);
constraint int_ne(jj, j[15]);
constraint int_ne(jj, j[16]);
constraint int_ne(jj, j[17]);
constraint int_ne(jj, j[18]);
constraint int_ne(jj, j[19]);
constraint int_ne(jj, j[20]);
constraint int_ne(jj, j[21]);
constraint int_ne(jj, j[22]);
constraint int_ne(jj, j[23]);
constraint int_ne(jj, j[24]);
constraint int_ne(jj, j[25]);
constraint int_ne(a[1], b[1]);
constraint int_ne(a[1], c[1]);
constraint int_ne(a[2], b[2]);
constraint int_ne(a[2], c[2]);
constraint int_ne(a[3], b[3]);
constraint int_ne(a[3], c[3]);
constraint int_ne(a[4], b[4]);
constraint int_ne(a[4], c[4]);
constraint int_ne(a[5], b[5]);
constraint int_ne(a[5], c[5]);
constraint int_ne(a[6], b[6]);
constraint int_ne(a[6], c[6]);
constraint int_ne(a[7], b[7]);
constraint int_ne(a[7], c[7]);
constraint int_ne(a[8], b[8]);
constraint int_ne(a[8], c[8]);
constraint int_ne(a[9], b[9]);
constraint int_ne(a[9], c[9]);
constraint int_ne(a[10], b[10]);
constraint int_ne(a[10], c[10]);
constraint int_ne(a[11], b[11]);
constraint int_ne(a[11], c[11]);
constraint int_ne(a[12], b[12]);
constraint int_ne(a[12], c[12]);
constraint int_ne(a[13], b[13]);
constraint int_ne(a[13], c[13]);
constraint int_ne(a[14], b[14]);
constraint int_ne(a[14], c[14]);
constraint int_ne(a[15], b[15]);
constraint int_ne(a[15], c[15]);
constraint int_ne(a[16], b[16]);
constraint int_ne(a[16], c[16]);
constraint int_ne(a[17], b[17]);
constraint int_ne(a[17], c[17]);
constraint int_ne(a[18], b[18]);
constraint int_ne(a[18], c[18]);
constraint int_ne(a[19], b[19]);
constraint int_ne(a[19], c[19]);
constraint int_ne(a[20], b[20]);
constraint int_ne(a[20], c[20]);
constraint int_ne(a[21], b[21]);
constraint int_ne(a[21], c[21]);
constraint int_ne(a[22], b[22]);
constraint int_ne(a[22], c[22]);
constraint int_ne(a[23], b[23]);
constraint int_ne(a[23], c[23]);
constraint int_ne(a[24], b[24]);
constraint int_ne(a[24], c[24]);
constraint int_ne(a[25], b[25]);
constraint int_ne(a[25], c[25]);
constraint int_ne(b[1], c[1]);
constraint int_ne(b[2], c[2]);
constraint int_ne(b[3], c[3]);
constraint int_ne(b[4], c[4]);
constraint int_ne(b[5], c[5]);
constraint int_ne(b[6], c[6]);
constraint int_ne(b[7], c[7]);
constraint int_ne(b[8], c[8]);
constraint int_ne(b[9], c[9]);
constraint int_ne(b[10], c[10]);
constraint int_ne(b[11], c[11]);
constraint int_ne(b[12], c[12]);
constraint int_ne(b[13], c[13]);
constraint int_ne(b[14], c[14]);
constraint int_ne(b[15], c[15]);
constraint int_ne(b[16], c[16]);
constraint int_ne(b[17], c[17]);
constraint int_ne(b[18], c[18]);
constraint int_ne(b[19], c[19]);
constraint int_ne(b[20], c[20]);
constraint int_ne(b[21], c[21]);
constraint int_ne(b[22], c[22]);
constraint int_ne(b[23], c[23]);
constraint int_ne(b[24], c[24]);
constraint int_ne(b[25], c[25]);
constraint int_ne(d[1], e[1]);
constraint int_ne(d[1], f[1]);
constraint int_ne(d[2], e[2]);
constraint int_ne(d[2], f[2]);
constraint int_ne(d[3], e[3]);
constraint int_ne(d[3], f[3]);
constraint int_ne(d[4], e[4]);
constraint int_ne(d[4], f[4]);
constraint int_ne(d[5], e[5]);
constraint int_ne(d[5], f[5]);
constraint int_ne(d[6], e[6]);
constraint int_ne(d[6], f[6]);
constraint int_ne(d[7], e[7]);
constraint int_ne(d[7], f[7]);
constraint int_ne(d[8], e[8]);
constraint int_ne(d[8], f[8]);
constraint int_ne(d[9], e[9]);
constraint int_ne(d[9], f[9]);
constraint int_ne(d[10], e[10]);
constraint int_ne(d[10], f[10]);
constraint int_ne(d[11], e[11]);
constraint int_ne(d[11], f[11]);
constraint int_ne(d[12], e[12]);
constraint int_ne(d[12], f[12]);
constraint int_ne(d[13], e[13]);
constraint int_ne(d[13], f[13]);
constraint int_ne(d[14], e[14]);
constraint int_ne(d[14], f[14]);
constraint int_ne(d[15], e[15]);
constraint int_ne(d[15], f[15]);
constraint int_ne(d[16], e[16]);
constraint int_ne(d[16], f[16]);
constraint int_ne(d[17], e[17]);
constraint int_ne(d[17], f[17]);
constraint int_ne(d[18], e[18]);
constraint int_ne(d[18], f[18]);
constraint int_ne(d[19], e[19]);
constraint int_ne(d[19], f[19]);
constraint int_ne(d[20], e[20]);
constraint int_ne(d[20], f[20]);
constraint int_ne(d[21], e[21]);
constraint int_ne(d[21], f[21]);
constraint int_ne(d[22], e[22]);
constraint int_ne(d[22], f[22]);
constraint int_ne(d[23], e[23]);
constraint int_ne(d[23], f[23]);
constraint int_ne(d[24], e[24]);
constraint int_ne(d[24], f[24]);
constraint int_ne(d[25], e[25]);
constraint int_ne(d[25], f[25]);
constraint int_ne(e[1], f[1]);
constraint int_ne(e[2], f[2]);
constraint int_ne(e[3], f[3]);
constraint int_ne(e[4], f[4]);
constraint int_ne(e[5], f[5]);
constraint int_ne(e[6], f[6]);
constraint int_ne(e[7], f[7]);
constraint int_ne(e[8], f[8]);
constraint int_ne(e[9], f[9]);
constraint int_ne(e[10], f[10]);
constraint int_ne(e[11], f[11]);
constraint int_ne(e[12], f[12]);
constraint int_ne(e[13], f[13]);
constraint int_ne(e[14], f[14]);
constraint int_ne(e[15], f[15]);
constraint int_ne(e[16], f[16]);
constraint int_ne(e[17], f[17]);
constraint int_ne(e[18], f[18]);
constraint int_ne(e[19], f[19]);
constraint int_ne(e[20], f[20]);
constraint int_ne(e[21], f[21]);
constraint int_ne(e[22], f[22]);
constraint int_ne(e[23], f[23]);
constraint int_ne(e[24], f[24]);
constraint int_ne(e[25], f[25]);
constraint int_ne(g[1], h[1]);
constraint int_ne(g[1], i[1]);
constraint int_ne(g[1], j[1]);
constraint int_ne(g[2], h[2]);
constraint int_ne(g[2], i[2]);
constraint int_ne(g[2], j[2]);
constraint int_ne(g[3], h[3]);
constraint int_ne(g[3], i[3]);
constraint int_ne(g[3], j[3]);
constraint int_ne(g[4], h[4]);
constraint int_ne(g[4], i[4]);
constraint int_ne(g[4], j[4]);
constraint int_ne(g[5], h[5]);
constraint int_ne(g[5], i[5]);
constraint int_ne(g[5], j[5]);
constraint int_ne(g[6], h[6]);
constraint int_ne(g[6], i[6]);
constraint int_ne(g[6], j[6]);
constraint int_ne(g[7], h[7]);
constraint int_ne(g[7], i[7]);
constraint int_ne(g[7], j[7]);
constraint int_ne(g[8], h[8]);
constraint int_ne(g[8], i[8]);
constraint int_ne(g[8], j[8]);
constraint int_ne(g[9], h[9]);
constraint int_ne(g[9], i[9]);
constraint int_ne(g[9], j[9]);
constraint int_ne(g[10], h[10]);
constraint int_ne(g[10], i[10]);
constraint int_ne(g[10], j[10]);
constraint int_ne(g[11], h[11]);
constraint int_ne(g[11], i[11]);
constraint int_ne(g[11], j[11]);
constraint int_ne(g[12], h[12]);
constraint int_ne(g[12], i[12]);
constraint int_ne(g[12], j[12]);
constraint int_ne(g[13], h[13]);
constraint int_ne(g[13], i[13]);
constraint int_ne(g[13], j[13]);
constraint int_ne(g[14], h[14]);
constraint int_ne(g[14], i[14]);
constraint int_ne(g[14], j[14]);
constraint int_ne(g[15], h[15]);
constraint int_ne(g[15], i[15]);
constraint int_ne(g[15], j[15]);
constraint int_ne(g[16], h[16]);
constraint int_ne(g[16], i[16]);
constraint int_ne(g[16], j[16]);
constraint int_ne(g[17], h[17]);
constraint int_ne(g[17], i[17]);
constraint int_ne(g[17], j[17]);
constraint int_ne(g[18], h[18]);
constraint int_ne(g[18], i[18]);
constraint int_ne(g[18], j[18]);
constraint int_ne(g[19], h[19]);
constraint int_ne(g[19], i[19]);
constraint int_ne(g[19], j[19]);
constraint int_ne(g[20], h[20]);
constraint int_ne(g[20], i[20]);
constraint int_ne(g[20], j[20]);
constraint int_ne(g[21], h[21]);
constraint int_ne(g[21], i[21]);
constraint int_ne(g[21], j[21]);
constraint int_ne(g[22], h[22]);
constraint int_ne(g[22], i[22]);
constraint int_ne(g[22], j[22]);
constraint int_ne(g[23], h[23]);
constraint int_ne(g[23], i[23]);
constraint int_ne(g[23], j[23]);
constraint int_ne(g[24], h[24]);
constraint int_ne(g[24], i[24]);
constraint int_ne(g[24], j[24]);
constraint int_ne(g[25], h[25]);
constraint int_ne(g[25], i[25]);
constraint int_ne(g[25], j[25]);
constraint int_ne(h[1], i[1]);
constraint int_ne(h[1], j[1]);
constraint int_ne(h[2], i[2]);
constraint int_ne(h[2], j[2]);
constraint int_ne(h[3], i[3]);
constraint int_ne(h[3], j[3]);
constraint int_ne(h[4], i[4]);
constraint int_ne(h[4], j[4]);
constraint int_ne(h[5], i[5]);
constraint int_ne(h[5], j[5]);
constraint int_ne(h[6], i[6]);
constraint int_ne(h[6], j[6]);
constraint int_ne(h[7], i[7]);
constraint int_ne(h[7], j[7]);
constraint int_ne(h[8], i[8]);
constraint int_ne(h[8], j[8]);
constraint int_ne(h[9], i[9]);
constraint int_ne(h[9], j[9]);
constraint int_ne(h[10], i[10]);
constraint int_ne(h[10], j[10]);
constraint int_ne(h[11], i[11]);
constraint int_ne(h[11], j[11]);
constraint int_ne(h[12], i[12]);
constraint int_ne(h[12], j[12]);
constraint int_ne(h[13], i[13]);
constraint int_ne(h[13], j[13]);
constraint int_ne(h[14], i[14]);
constraint int_ne(h[14], j[14]);
constraint int_ne(h[15], i[15]);
constraint int_ne(h[15], j[15]);
constraint int_ne(h[16], i[16]);
constraint int_ne(h[16], j[16]);
constraint int_ne(h[17], i[17]);
constraint int_ne(h[17], j[17]);
constraint int_ne(h[18], i[18]);
constraint int_ne(h[18], j[18]);
constraint int_ne(h[19], i[19]);
constraint int_ne(h[19], j[19]);
constraint int_ne(h[20], i[20]);
constraint int_ne(h[20], j[20]);
constraint int_ne(h[21], i[21]);
constraint int_ne(h[21], j[21]);
constraint int_ne(h[22], i[22]);
constraint int_ne(h[22], j[22]);
constraint int_ne(h[23], i[23]);
constraint int_ne(h[23], j[23]);
constraint int_ne(h[24], i[24]);
constraint int_ne(h[24], j[24]);
constraint int_ne(h[25], i[25]);
constraint int_ne(h[25], j[25]);
constraint int_ne(i[1], j[1]);
constraint int_ne(i[2], j[2]);
constraint int_ne(i[3], j[3]);
constraint int_ne(i[4], j[4]);
constraint int_ne(i[5], j[5]);
constraint int_ne(i[6], j[6]);
constraint int_ne(i[7], j[7]);
constraint int_ne(i[8], j[8]);
constraint int_ne(i[9], j[9]);
constraint int_ne(i[10], j[10]);
constraint int_ne(i[11], j[11]);
constraint int_ne(i[12], j[12]);
constraint int_ne(i[13], j[13]);
constraint int_ne(i[14], j[14]);
constraint int_ne(i[15], j[15]);
constraint int_ne(i[16], j[16]);
constraint int_ne(i[17], j[17]);
constraint int_ne(i[18], j[18]);
constraint int_ne(i[19], j[19]);
constraint int_ne(i[20], j[20]);
constraint int_ne(i[21], j[21]);
constraint int_ne(i[22], j[22]);
constraint int_ne(i[23], j[23]);
constraint int_ne(i[24], j[24]);
constraint int_ne(i[25], j[25]);
solve satisfy;
